16
71
41
93
4
70
30
99
3
97
82
43
54
50
13
76
46
63
66
22
5
12
26
95
65
11
77
40
10
15
68
39
74
61
51
2
42
60
80
49
29
36
14
94
73
90
78
9
33
72
6
98
57
21
59
27
62
96
89
1
18
34
52
35
37
79
28
45
81
83
48
85
17
8
32
75
23
88
56
84
91
20
64
47
31
38
19
87
67
44
24
0
58
7
69
53
92
25
86
55
